p cnf 60 128
-18 -60 0
-18 -59 0
-15 -58 0
-15 -57 0
-14 56 0
-17 -56 0
-14 -55 0
-11 -54 0
-11 53 0
-16 -53 0
-10 -52 0
-10 51 0
-13 52 0
-13 -51 0
-16 -52 0
-16 -51 0
-10 -50 0
-7 -49 0
-7 -48 0
-7 47 0
-12 48 0
-12 -47 0
-17 -48 0
-17 -47 0
-6 46 0
-6 45 0
-9 -46 0
-9 45 0
-12 46 0
-12 -45 0
-15 -46 0
-15 -45 0
-6 -44 0
-5 -43 0
-5 42 0
-8 43 0
-8 -42 0
-11 -43 0
-11 -42 0
-5 41 0
-10 -41 0
-4 40 0
-7 -40 0
-4 -39 0
-4 38 0
-9 39 0
-9 -38 0
-14 -39 0
-14 -38 0
-3 -37 0
-3 36 0
-3 35 0
-8 -36 0
-8 35 0
-13 36 0
-13 -35 0
-18 -36 0
-18 -35 0
18 14 10 6 0
-6 34 0
-6 33 0
-10 -34 0
-10 33 0
-14 34 0
-14 -33 0
-18 -34 0
-18 -33 0
17 13 9 5 0
-5 32 0
-5 31 0
-9 -32 0
-9 31 0
-13 32 0
-13 -31 0
-17 -32 0
-17 -31 0
16 12 8 4 0
-4 30 0
-4 29 0
-8 -30 0
-8 29 0
-12 30 0
-12 -29 0
-16 -30 0
-16 -29 0
15 11 7 3 0
-3 28 0
-3 27 0
-7 -28 0
-7 27 0
-11 28 0
-11 -27 0
-15 -28 0
-15 -27 0
-18 26 0
-18 25 0
-17 -26 0
-17 25 0
-16 26 0
-16 -25 0
-15 -26 0
-15 -25 0
-14 24 0
-14 23 0
-13 -24 0
-13 23 0
-12 24 0
-12 -23 0
-11 -24 0
-11 -23 0
-10 22 0
-10 21 0
-9 -22 0
-9 21 0
-8 22 0
-8 -21 0
-7 -22 0
-7 -21 0
-6 20 0
-6 19 0
-5 -20 0
-5 19 0
-4 20 0
-4 -19 0
-3 -20 0
-3 -19 0
1 0
-2 0
